n = 20;
d = [1, 5, 8, 2, 4, 9, 6, 3, 1, 6, 7, 8, 3, 6, 4, 2, 9, 4, 8, 7];

m = 12;
pre  = [1, 5, 8, 3, 5, 7,10,15,18,19,19,20];
post = [4, 6,17, 4, 7, 9, 3,17, 8, 1, 6,10];

o = 4;
disj = [{1,3,5,7,9,11,13}, {4,5,6,7,8,9}, {8,10,12,14,16,18,20}, {2,3,9,10,14,15,19}];